Gurobi 12.0.3:   lim:time = 14400

  mip:bestbound = 1

Set parameter LogToConsole to value 1

  tech:outlev = 1

Set parameter Cuts to value 3

  cut:cuts = 3

Set parameter Presolve to value 2

  pre:solve = 2

Set parameter MIPFocus to value 2

  mip:focus = 2

Set parameter Symmetry to value 2

  mip:symmetry = 2

Set parameter InfUnbdInfo to value 1

Gurobi Optimizer version 12.0.3 build v12.0.3rc0 (win64 - Windows 10.0 (19045.2))



CPU model: 11th Gen Intel(R) Core(TM) i7-11700 @ 2.50GHz, instruction set [SSE2|AVX|AVX2|AVX512]

Thread count: 8 physical cores, 16 logical processors, using up to 16 threads



Non-default parameters:

TimeLimit  14400

MIPFocus  2

Symmetry  2

Cuts  3

InfUnbdInfo  1

Presolve  2



Optimize a model with 285 rows, 526 columns and 2869 nonzeros

Model fingerprint: 0xa9c51f33

Model has 1 quadratic objective term

Model has 5 quadratic constraints

Variable types: 33 continuous, 493 integer (0 binary)

Coefficient statistics:

  Matrix range     [1e+00, 1e+05]

  QMatrix range    [1e+00, 1e+00]

  QLMatrix range   [1e+00, 1e+01]

  Objective range  [6e+00, 1e+02]

  QObjective range [2e+00, 2e+00]

  Bounds range     [1e+00, 1e+02]

  RHS range        [1e+00, 1e+05]

  QRHS range       [1e+02, 1e+02]

Presolve removed 25 rows and 80 columns

Presolve time: 0.07s

Presolved: 573 rows, 753 columns, 4331 nonzeros

Variable types: 74 continuous, 679 integer (573 binary)

Found heuristic solution: objective 337.5400000

Root relaxation presolve removed 18 rows and 0 columns

Root relaxation presolved: 403 rows, 606 columns, 4596 nonzeros





Root relaxation: objective 1.304378e+02, 86 iterations, 0.02 seconds (0.01 work units)



    Nodes    |    Current Node    |     Objective Bounds      |     Work

 Expl Unexpl |  Obj  Depth IntInf | Incumbent    BestBd   Gap | It/Node Time



     0     0  130.43778    0   40  337.54000  130.43778  61.4%     -    0s

H    0     0                     317.5500000  130.43778  58.9%     -    0s

     0     0  183.15583    0   41  317.55000  183.15583  42.3%     -    0s

     0     0  183.15583    0   61  317.55000  183.15583  42.3%     -    0s

     0     0  183.15583    0   58  317.55000  183.15583  42.3%     -    0s

H    0     0                     315.4800000  183.89000  41.7%     -    0s

H    0     0                     297.6200000  183.89000  38.2%     -    0s

     0     0  184.67182    0   25  297.62000  184.67182  38.0%     -    0s

     0     0  186.59354    0   37  297.62000  186.59354  37.3%     -    0s

H    0     0                     290.4200000  187.37194  35.5%     -    0s

H    0     0                     285.4800000  187.37194  34.4%     -    0s

H    0     0                     282.0400000  187.37194  33.6%     -    0s

     0     0  187.37194    0   32  282.04000  187.37194  33.6%     -    0s

H    0     0                     263.9500000  187.37194  29.0%     -    0s

     0     0  187.37194    0   32  263.95000  187.37194  29.0%     -    0s

     0     2  187.37194    0   32  263.95000  187.37194  29.0%     -    0s

H  113   104                     252.5200000  187.37194  25.8%   9.9    0s

*  464   243              25     245.8000000  189.56031  22.9%   9.6    0s

H  625   281                     242.3400000  191.01355  21.2%   9.5    0s



Cutting planes:

  Learned: 14

  Gomory: 37

  Cover: 18

  Implied bound: 32

  Clique: 2

  MIR: 34

  StrongCG: 25

  Flow cover: 128

  Inf proof: 22

  Zero half: 81

  RLT: 93

  Relax-and-lift: 23



Explored 3518 nodes (35899 simplex iterations) in 1.25 seconds (0.96 work units)

Thread count was 16 (of 16 available processors)



Solution count 10: 242.34 245.8 252.52 ... 317.55



Optimal solution found (tolerance 1.00e-04)

Best objective 2.423400000000e+02, best bound 2.423400000000e+02, gap 0.0000%



AMPL MP initial flat model has 526 variables (0 integer, 493 binary);

Objectives: 1 quadratic; 

Constraints:  285 linear; 5 quadratic;



AMPL MP final model has 526 variables (0 integer, 493 binary);

Objectives: 1 quadratic; 

Constraints:  285 linear; 5 quadratic;





-----RESULTS INFO-----
running_time:  1.344
TC.best_bound:  242.34
TC:  242.34000000000003
MIP Gap (%):  1.1728030630685816e-14
=== Vehicle Routes ===
Vehicle 1: 0 → 1
Vehicle 1: 1 → 8
Vehicle 1: 5 → 15
Vehicle 1: 8 → 11
Vehicle 1: 11 → 5
Vehicle 2: 0 → 15
Vehicle 3: 0 → 15

=== Full Vehicle Routes ===
Vehicle 1: 0 → 1 → 8 → 11 → 5 → 0 (88<100)
Vehicle 2: 0 → 0 (0<100)
Vehicle 3: 0 → 0 (0<100)
Arc used by MRT line: y variables:
Customer assigment to PL: u variables:
2 8
3 8
4 11
6 11
7 8
Node is served by regular vehicle: g variables:
1
5
8
11
Customer assigment to Home delivery: gm variables:
1
5
Node total demands: ntd variables:
1 13 1
5 6 1
6 0 0
7 0 0
14 0 0
8 50 1
9 0 0
10 0 0
11 19 1
12 0 0
13 0 0
Customer's demand delivered to PL: l variables:
2
3
4
6
7
Lockers load <= capacity:
0 <= 71
50 <= 92
0 <= 73
0 <= 86
19 <= 79
0 <= 73
0 <= 82
